data/solutions/recovery/degenerate/intermediate/binding/degenerate_intermediate_instance38/28.sol
Elapsed time: 0.07
Upper bound: 295321.0
Planning weighted value: 14113421614.0
C[0]=295321.0
C[1]=295308.0
C[2]=295190.0
C[3]=294869.0
C[4]=294419.0
C[5]=292755.0
C[6]=292277.0
C[7]=292157.0
C[8]=290964.0
C[9]=290358.0
C[10]=284863.0
C[11]=284155.0
C[12]=281782.0
C[13]=0.0
C[14]=0.0
C[15]=0.0
y[0]=7
y[1]=12
y[2]=6
y[3]=4
y[4]=0
y[5]=4
y[6]=10
y[7]=7
y[8]=4
y[9]=10
y[10]=0
y[11]=8
y[12]=9
y[13]=0
y[14]=7
y[15]=11
y[16]=0
y[17]=2
y[18]=8
y[19]=5
y[20]=4
y[21]=12
y[22]=8
y[23]=9
y[24]=9
y[25]=12
y[26]=1
y[27]=3
y[28]=6
y[29]=7
y[30]=8
y[31]=5
y[32]=11
y[33]=2
y[34]=2
y[35]=4
y[36]=5
y[37]=1
y[38]=6
y[39]=11
y[40]=9
y[41]=5
y[42]=9
y[43]=2
y[44]=0
y[45]=12
y[46]=7
y[47]=12
y[48]=0
y[49]=1
y[50]=2
y[51]=10
y[52]=6
y[53]=2
y[54]=9
y[55]=3
y[56]=1
y[57]=10
y[58]=3
y[59]=6
y[60]=4
y[61]=5
y[62]=11
y[63]=3
y[64]=4
y[65]=1
