data/solutions/recovery/degenerate/intermediate/binding/degenerate_intermediate_instance38/28.log

Log started (V12.6.3.0) Sun Apr 22 12:34:48 2018

New value for default parallel thread count: 1

Problem '/tmp/tmpFP_spV.pyomo.lp' read.
Read time = 0.01 sec. (0.70 ticks)

Problem name         : /tmp/tmpFP_spV.pyomo.lp
Objective sense      : Minimize
Variables            :    1074  [Nneg: 1,  Binary: 1056,  General Integer: 17]
Objective nonzeros   :       1
Linear constraints   :     168  [Less: 82,  Equal: 86]
  Nonzeros           :   49863
  RHS nonzeros       :      67

Variables            : Min LB: 0.000000         Max UB: 1.000000       
Objective nonzeros   : Min   : 1.000000         Max   : 1.000000       
Linear constraints   :
  Nonzeros           : Min   : 1.000000         Max   : 117484.0       
  RHS nonzeros       : Min   : 1.000000         Max   : 1.000000       
Tried aggregator 2 times.
MIP Presolve eliminated 124 rows and 826 columns.
Aggregator did 13 substitutions.
Reduced MIP has 31 rows, 235 columns, and 481 nonzeros.
Reduced MIP has 234 binaries, 1 generals, 0 SOSs, and 0 indicators.
Presolve time = 0.00 sec. (3.90 ticks)
Found incumbent of value 1353584.000000 after 0.00 sec. (5.18 ticks)
Probing time = 0.00 sec. (0.32 ticks)
Cover probing fixed 0 vars, tightened 3 bounds.
Tried aggregator 1 time.
Reduced MIP has 31 rows, 235 columns, and 481 nonzeros.
Reduced MIP has 234 binaries, 1 generals, 0 SOSs, and 0 indicators.
Presolve time = 0.00 sec. (0.42 ticks)
Probing time = 0.00 sec. (0.31 ticks)
Clique table members: 18.
MIP emphasis: balance optimality and feasibility.
MIP search method: dynamic search.
Parallel mode: none, using 1 thread.
Root relaxation solution time = 0.00 sec. (0.45 ticks)

        Nodes                                         Cuts/
   Node  Left     Objective  IInf  Best Integer    Best Bound    ItCnt     Gap

*     0+    0                      1353584.0000   253379.0000            81.28%
      0     0   291109.0769    22  1353584.0000   291109.0769       66   78.49%
*     0+    0                       336792.0000   291109.0769            13.56%
      0     0   291110.0000    25   336792.0000      Cuts: 10      104   13.56%
      0     0   291110.0000    32   336792.0000      Cuts: 19      175   13.56%
*     0+    0                       331962.0000   291110.0000            12.31%
*     0+    0                       323351.0000   291110.0000             9.97%
*     0+    0                       318052.0000   291110.0000             8.47%
*     0+    0                       314171.0000   291110.0000             7.34%
      0     2   291110.0000    18   314171.0000   291110.0000      175    7.34%
Elapsed time = 0.02 sec. (16.86 ticks, tree = 0.01 MB, solutions = 5)
*    20+   20                       310701.0000   291110.0000             6.31%
*    20+   19                       304734.0000   291110.0000             4.47%
*    60    51      integral     0   304232.0000   291110.0000      530    4.31%
*    63    40      integral     0   304087.0000   291110.0000      538    4.27%
*    70+   36                       302743.0000   291110.0000             3.84%
*    80+   41                       299804.0000   291110.0000             2.90%
*    90+   51                       297019.0000   291110.0000             1.99%
*   210+  144                       296338.0000   295249.0000             0.37%
*   310+  128                       295321.0000   295308.0000             0.00%

Cover cuts applied:  2
Implied bound cuts applied:  2
Zero-half cuts applied:  2
Lift and project cuts applied:  2

Root node processing (before b&c):
  Real time             =    0.02 sec. (16.95 ticks)
Sequential b&c:
  Real time             =    0.02 sec. (18.70 ticks)
                          ------------
Total (root+branch&cut) =    0.04 sec. (35.66 ticks)

Solution pool: 14 solutions saved.

MIP - Integer optimal, tolerance (0.0001/1e-06):  Objective =  2.9532100000e+05
Current MIP best bound =  2.9530800000e+05 (gap = 13, 0.00%)
Solution time =    0.04 sec.  Iterations = 1326  Nodes = 310 (129)
Deterministic time = 35.66 ticks  (892.23 ticks/sec)


Incumbent solution written to file '/tmp/tmpRcnVRG.cplex.sol'.
